p edge 3462 3377
e 1 2
e 1 3
e 1 4
e 1 5
e 1 6
e 1 7
e 1 8
e 1 9
e 1 10
e 1 11
e 1 12
e 1 13
e 1 14
e 1 15
e 1 16
e 1 17
e 1 18
e 1 19
e 1 20
e 1 21
e 1 22
e 1 23
e 1 24
e 1 25
e 1 26
e 1 27
e 1 28
e 1 29
e 1 30
e 1 31
e 1 32
e 1 33
e 1 34
e 1 35
e 1 36
e 1 37
e 1 38
e 1 39
e 1 40
e 1 41
e 1 42
e 1 43
e 1 44
e 1 45
e 1 46
e 1 47
e 1 48
e 1 49
e 1 50
e 1 51
e 52 53
e 52 54
e 52 55
e 52 56
e 52 57
e 52 58
e 52 59
e 52 60
e 52 61
e 52 62
e 52 63
e 52 64
e 52 65
e 52 66
e 52 67
e 52 68
e 52 69
e 52 70
e 52 71
e 52 72
e 52 73
e 52 74
e 52 75
e 52 76
e 52 77
e 52 78
e 52 79
e 52 80
e 52 81
e 52 82
e 52 83
e 52 84
e 52 85
e 52 86
e 52 87
e 52 88
e 52 89
e 52 90
e 52 91
e 52 92
e 52 93
e 52 94
e 52 95
e 52 96
e 97 98
e 97 99
e 97 100
e 97 101
e 97 102
e 97 103
e 97 104
e 97 105
e 97 106
e 97 107
e 97 108
e 97 109
e 97 110
e 97 111
e 97 112
e 97 113
e 97 114
e 97 115
e 97 116
e 97 117
e 97 118
e 97 119
e 97 120
e 97 121
e 97 122
e 97 123
e 97 124
e 97 125
e 97 126
e 97 127
e 97 128
e 97 129
e 97 130
e 97 131
e 97 132
e 97 133
e 97 134
e 97 135
e 97 136
e 97 137
e 97 138
e 97 139
e 140 141
e 140 142
e 140 143
e 140 144
e 140 145
e 140 146
e 140 147
e 140 148
e 140 149
e 140 150
e 140 151
e 140 152
e 140 153
e 140 154
e 140 155
e 140 156
e 140 157
e 140 158
e 140 159
e 140 160
e 140 161
e 140 162
e 140 163
e 140 164
e 140 165
e 140 166
e 140 167
e 140 168
e 140 169
e 140 170
e 140 171
e 140 172
e 140 173
e 174 175
e 174 176
e 174 177
e 174 178
e 174 179
e 174 180
e 174 181
e 174 182
e 174 183
e 174 184
e 174 185
e 174 186
e 174 187
e 188 189
e 188 190
e 188 191
e 188 192
e 188 193
e 188 194
e 188 195
e 188 196
e 188 197
e 188 198
e 188 199
e 188 200
e 188 201
e 188 202
e 188 203
e 188 204
e 188 205
e 188 206
e 188 207
e 188 208
e 188 209
e 188 210
e 188 211
e 188 212
e 188 213
e 188 214
e 188 215
e 188 216
e 188 217
e 188 218
e 188 219
e 188 220
e 188 221
e 188 222
e 188 223
e 188 224
e 188 225
e 188 226
e 188 227
e 188 228
e 188 229
e 188 230
e 188 231
e 188 232
e 188 233
e 188 234
e 188 235
e 188 236
e 188 237
e 238 239
e 238 240
e 238 241
e 238 242
e 238 243
e 238 244
e 238 245
e 238 246
e 238 247
e 238 248
e 238 249
e 238 250
e 238 251
e 238 252
e 238 253
e 238 254
e 238 255
e 238 256
e 238 257
e 238 258
e 238 259
e 238 260
e 238 261
e 238 262
e 238 263
e 238 264
e 238 265
e 238 266
e 238 267
e 238 268
e 238 269
e 270 271
e 270 272
e 270 273
e 270 274
e 270 275
e 270 276
e 270 277
e 270 278
e 270 279
e 270 280
e 270 281
e 270 282
e 270 283
e 270 284
e 270 285
e 270 286
e 270 287
e 270 288
e 270 289
e 270 290
e 270 291
e 270 292
e 270 293
e 270 294
e 270 295
e 270 296
e 270 297
e 270 298
e 270 299
e 270 300
e 270 301
e 270 302
e 270 303
e 270 304
e 270 305
e 270 306
e 270 307
e 308 309
e 308 310
e 308 311
e 308 312
e 308 313
e 308 314
e 308 315
e 308 316
e 308 317
e 308 318
e 308 319
e 308 320
e 308 321
e 308 322
e 308 323
e 308 324
e 308 325
e 308 326
e 308 327
e 308 328
e 308 329
e 308 330
e 308 331
e 308 332
e 308 333
e 308 334
e 308 335
e 308 336
e 308 337
e 308 338
e 308 339
e 308 340
e 308 341
e 308 342
e 308 343
e 308 344
e 308 345
e 308 346
e 308 347
e 308 348
e 308 349
e 308 350
e 308 351
e 308 352
e 308 353
e 308 354
e 308 355
e 308 356
e 308 357
e 308 358
e 308 359
e 308 360
e 308 361
e 308 362
e 308 363
e 308 364
e 308 365
e 308 366
e 367 368
e 367 369
e 367 370
e 367 371
e 367 372
e 367 373
e 367 374
e 367 375
e 367 376
e 367 377
e 367 378
e 367 379
e 367 380
e 367 381
e 367 382
e 367 383
e 367 384
e 367 385
e 367 386
e 367 387
e 367 388
e 367 389
e 367 390
e 367 391
e 367 392
e 367 393
e 367 394
e 367 395
e 367 396
e 367 397
e 367 398
e 367 399
e 367 400
e 367 401
e 367 402
e 367 403
e 367 404
e 367 405
e 367 406
e 367 407
e 367 408
e 367 409
e 367 410
e 367 411
e 367 412
e 367 413
e 367 414
e 367 415
e 367 416
e 367 417
e 367 418
e 367 419
e 367 420
e 367 421
e 367 422
e 367 423
e 424 425
e 424 426
e 424 427
e 424 428
e 424 429
e 424 430
e 424 431
e 424 432
e 424 433
e 424 434
e 424 435
e 424 436
e 424 437
e 424 438
e 424 439
e 424 440
e 424 441
e 424 442
e 424 443
e 424 444
e 424 445
e 424 446
e 424 447
e 424 448
e 449 450
e 449 451
e 449 452
e 449 453
e 449 454
e 449 455
e 449 456
e 449 457
e 449 458
e 449 459
e 449 460
e 449 461
e 449 462
e 449 463
e 449 464
e 449 465
e 449 466
e 449 467
e 449 468
e 449 469
e 449 470
e 449 471
e 449 472
e 449 473
e 449 474
e 449 475
e 449 476
e 449 477
e 449 478
e 449 479
e 449 480
e 449 481
e 449 482
e 449 483
e 449 484
e 449 485
e 449 486
e 449 487
e 449 488
e 489 490
e 489 491
e 489 492
e 489 493
e 489 494
e 489 495
e 489 496
e 489 497
e 489 498
e 489 499
e 489 500
e 489 501
e 489 502
e 489 503
e 489 504
e 489 505
e 489 506
e 489 507
e 489 508
e 489 509
e 489 510
e 489 511
e 489 512
e 489 513
e 489 514
e 489 515
e 489 516
e 489 517
e 489 518
e 489 519
e 489 520
e 489 521
e 489 522
e 489 523
e 489 524
e 489 525
e 489 526
e 489 527
e 489 528
e 489 529
e 489 530
e 489 531
e 489 532
e 489 533
e 489 534
e 489 535
e 489 536
e 489 537
e 489 538
e 489 539
e 489 540
e 489 541
e 489 542
e 489 543
e 489 544
e 489 545
e 489 546
e 489 547
e 489 548
e 489 549
e 489 550
e 489 551
e 489 552
e 489 553
e 489 554
e 489 555
e 489 556
e 557 558
e 557 559
e 557 560
e 557 561
e 557 562
e 557 563
e 557 564
e 557 565
e 557 566
e 557 567
e 557 568
e 557 569
e 557 570
e 557 571
e 557 572
e 557 573
e 557 574
e 557 575
e 557 576
e 557 577
e 557 578
e 557 579
e 557 580
e 557 581
e 557 582
e 557 583
e 557 584
e 557 585
e 557 586
e 557 587
e 557 588
e 557 589
e 557 590
e 557 591
e 557 592
e 557 593
e 557 594
e 557 595
e 557 596
e 557 597
e 557 598
e 557 599
e 557 600
e 557 601
e 557 602
e 557 603
e 557 604
e 557 605
e 557 606
e 557 607
e 557 608
e 557 609
e 557 610
e 557 611
e 557 612
e 557 613
e 557 614
e 557 615
e 616 617
e 616 618
e 616 619
e 616 620
e 616 621
e 616 622
e 616 623
e 616 624
e 616 625
e 616 626
e 616 627
e 616 628
e 616 629
e 616 630
e 616 631
e 616 632
e 616 633
e 616 634
e 616 635
e 616 636
e 616 637
e 616 638
e 616 639
e 616 640
e 616 641
e 616 642
e 616 643
e 616 644
e 616 645
e 616 646
e 616 647
e 616 648
e 616 649
e 616 650
e 616 651
e 616 652
e 616 653
e 616 654
e 616 655
e 616 656
e 616 657
e 616 658
e 616 659
e 616 660
e 616 661
e 616 662
e 616 663
e 616 664
e 616 665
e 616 666
e 616 667
e 616 668
e 616 669
e 616 670
e 616 671
e 616 672
e 616 673
e 616 674
e 616 675
e 616 676
e 616 677
e 678 679
e 678 680
e 678 681
e 678 682
e 678 683
e 678 684
e 678 685
e 678 686
e 678 687
e 678 688
e 678 689
e 678 690
e 678 691
e 692 693
e 692 694
e 692 695
e 692 696
e 692 697
e 692 698
e 692 699
e 692 700
e 692 701
e 692 702
e 692 703
e 692 704
e 692 705
e 692 706
e 692 707
e 692 708
e 692 709
e 692 710
e 692 711
e 692 712
e 692 713
e 692 714
e 692 715
e 692 716
e 692 717
e 692 718
e 692 719
e 692 720
e 692 721
e 692 722
e 692 723
e 692 724
e 692 725
e 692 726
e 692 727
e 692 728
e 692 729
e 692 730
e 692 731
e 692 732
e 692 733
e 692 734
e 692 735
e 692 736
e 692 737
e 692 738
e 692 739
e 692 740
e 692 741
e 692 742
e 692 743
e 692 744
e 692 745
e 692 746
e 747 748
e 747 749
e 747 750
e 747 751
e 747 752
e 747 753
e 747 754
e 747 755
e 747 756
e 747 757
e 747 758
e 747 759
e 747 760
e 747 761
e 747 762
e 747 763
e 747 764
e 747 765
e 747 766
e 747 767
e 747 768
e 747 769
e 747 770
e 747 771
e 747 772
e 747 773
e 747 774
e 747 775
e 747 776
e 747 777
e 747 778
e 747 779
e 747 780
e 747 781
e 747 782
e 747 783
e 747 784
e 747 785
e 747 786
e 747 787
e 747 788
e 747 789
e 747 790
e 747 791
e 747 792
e 747 793
e 747 794
e 747 795
e 747 796
e 747 797
e 747 798
e 747 799
e 747 800
e 747 801
e 747 802
e 747 803
e 747 804
e 747 805
e 747 806
e 807 808
e 807 809
e 807 810
e 807 811
e 807 812
e 807 813
e 807 814
e 807 815
e 807 816
e 807 817
e 807 818
e 807 819
e 807 820
e 807 821
e 807 822
e 807 823
e 807 824
e 807 825
e 807 826
e 807 827
e 807 828
e 807 829
e 807 830
e 807 831
e 807 832
e 807 833
e 807 834
e 807 835
e 807 836
e 807 837
e 838 839
e 838 840
e 838 841
e 838 842
e 838 843
e 838 844
e 838 845
e 838 846
e 838 847
e 838 848
e 838 849
e 838 850
e 838 851
e 838 852
e 838 853
e 838 854
e 838 855
e 838 856
e 838 857
e 838 858
e 838 859
e 838 860
e 838 861
e 838 862
e 838 863
e 838 864
e 838 865
e 838 866
e 838 867
e 838 868
e 838 869
e 838 870
e 838 871
e 838 872
e 838 873
e 838 874
e 838 875
e 838 876
e 838 877
e 838 878
e 838 879
e 838 880
e 838 881
e 838 882
e 838 883
e 838 884
e 838 885
e 838 886
e 838 887
e 838 888
e 838 889
e 838 890
e 838 891
e 838 892
e 838 893
e 894 895
e 894 896
e 894 897
e 894 898
e 894 899
e 894 900
e 894 901
e 894 902
e 894 903
e 894 904
e 894 905
e 894 906
e 894 907
e 894 908
e 894 909
e 894 910
e 894 911
e 894 912
e 894 913
e 894 914
e 894 915
e 894 916
e 894 917
e 894 918
e 894 919
e 894 920
e 894 921
e 894 922
e 894 923
e 894 924
e 894 925
e 894 926
e 894 927
e 894 928
e 894 929
e 894 930
e 894 931
e 894 932
e 894 933
e 894 934
e 894 935
e 894 936
e 894 937
e 938 939
e 938 940
e 938 941
e 938 942
e 938 943
e 938 944
e 938 945
e 938 946
e 938 947
e 938 948
e 938 949
e 938 950
e 938 951
e 938 952
e 938 953
e 938 954
e 938 955
e 938 956
e 938 957
e 938 958
e 938 959
e 938 960
e 938 961
e 938 962
e 938 963
e 938 964
e 965 966
e 965 967
e 965 968
e 965 969
e 965 970
e 965 971
e 965 972
e 965 973
e 965 974
e 965 975
e 965 976
e 965 977
e 965 978
e 965 979
e 965 980
e 965 981
e 965 982
e 965 983
e 965 984
e 965 985
e 965 986
e 965 987
e 988 989
e 988 990
e 988 991
e 988 992
e 988 993
e 988 994
e 988 995
e 988 996
e 988 997
e 988 998
e 988 999
e 988 1000
e 988 1001
e 988 1002
e 988 1003
e 988 1004
e 988 1005
e 988 1006
e 988 1007
e 988 1008
e 988 1009
e 988 1010
e 988 1011
e 988 1012
e 988 1013
e 988 1014
e 988 1015
e 988 1016
e 988 1017
e 988 1018
e 988 1019
e 1020 1021
e 1020 1022
e 1020 1023
e 1020 1024
e 1020 1025
e 1020 1026
e 1020 1027
e 1020 1028
e 1020 1029
e 1020 1030
e 1020 1031
e 1020 1032
e 1020 1033
e 1020 1034
e 1020 1035
e 1020 1036
e 1020 1037
e 1020 1038
e 1039 1040
e 1039 1041
e 1039 1042
e 1039 1043
e 1039 1044
e 1039 1045
e 1039 1046
e 1039 1047
e 1039 1048
e 1039 1049
e 1039 1050
e 1039 1051
e 1039 1052
e 1039 1053
e 1039 1054
e 1039 1055
e 1039 1056
e 1039 1057
e 1039 1058
e 1039 1059
e 1039 1060
e 1039 1061
e 1039 1062
e 1039 1063
e 1039 1064
e 1039 1065
e 1039 1066
e 1039 1067
e 1039 1068
e 1039 1069
e 1039 1070
e 1039 1071
e 1039 1072
e 1039 1073
e 1039 1074
e 1039 1075
e 1039 1076
e 1039 1077
e 1039 1078
e 1039 1079
e 1039 1080
e 1039 1081
e 1039 1082
e 1039 1083
e 1039 1084
e 1039 1085
e 1039 1086
e 1039 1087
e 1039 1088
e 1039 1089
e 1039 1090
e 1039 1091
e 1039 1092
e 1039 1093
e 1039 1094
e 1039 1095
e 1039 1096
e 1039 1097
e 1039 1098
e 1039 1099
e 1039 1100
e 1101 1102
e 1101 1103
e 1101 1104
e 1101 1105
e 1101 1106
e 1101 1107
e 1101 1108
e 1101 1109
e 1101 1110
e 1101 1111
e 1101 1112
e 1101 1113
e 1101 1114
e 1101 1115
e 1101 1116
e 1101 1117
e 1101 1118
e 1101 1119
e 1101 1120
e 1101 1121
e 1101 1122
e 1101 1123
e 1101 1124
e 1125 1126
e 1125 1127
e 1125 1128
e 1125 1129
e 1125 1130
e 1125 1131
e 1125 1132
e 1125 1133
e 1125 1134
e 1125 1135
e 1125 1136
e 1125 1137
e 1125 1138
e 1125 1139
e 1125 1140
e 1125 1141
e 1125 1142
e 1125 1143
e 1125 1144
e 1125 1145
e 1125 1146
e 1125 1147
e 1125 1148
e 1125 1149
e 1125 1150
e 1125 1151
e 1125 1152
e 1125 1153
e 1125 1154
e 1125 1155
e 1125 1156
e 1125 1157
e 1125 1158
e 1125 1159
e 1125 1160
e 1125 1161
e 1125 1162
e 1125 1163
e 1125 1164
e 1125 1165
e 1125 1166
e 1125 1167
e 1125 1168
e 1125 1169
e 1125 1170
e 1125 1171
e 1125 1172
e 1125 1173
e 1125 1174
e 1125 1175
e 1125 1176
e 1125 1177
e 1125 1178
e 1125 1179
e 1125 1180
e 1125 1181
e 1125 1182
e 1125 1183
e 1125 1184
e 1125 1185
e 1186 1187
e 1186 1188
e 1186 1189
e 1186 1190
e 1186 1191
e 1186 1192
e 1186 1193
e 1186 1194
e 1186 1195
e 1186 1196
e 1186 1197
e 1186 1198
e 1186 1199
e 1186 1200
e 1186 1201
e 1186 1202
e 1186 1203
e 1186 1204
e 1186 1205
e 1186 1206
e 1186 1207
e 1186 1208
e 1186 1209
e 1186 1210
e 1186 1211
e 1186 1212
e 1186 1213
e 1186 1214
e 1186 1215
e 1186 1216
e 1186 1217
e 1186 1218
e 1186 1219
e 1186 1220
e 1186 1221
e 1186 1222
e 1186 1223
e 1186 1224
e 1186 1225
e 1186 1226
e 1186 1227
e 1186 1228
e 1186 1229
e 1186 1230
e 1186 1231
e 1186 1232
e 1186 1233
e 1186 1234
e 1186 1235
e 1236 1237
e 1236 1238
e 1236 1239
e 1236 1240
e 1236 1241
e 1236 1242
e 1236 1243
e 1236 1244
e 1236 1245
e 1236 1246
e 1247 1248
e 1247 1249
e 1247 1250
e 1247 1251
e 1247 1252
e 1247 1253
e 1247 1254
e 1247 1255
e 1247 1256
e 1247 1257
e 1247 1258
e 1247 1259
e 1247 1260
e 1247 1261
e 1247 1262
e 1247 1263
e 1247 1264
e 1247 1265
e 1247 1266
e 1247 1267
e 1247 1268
e 1247 1269
e 1247 1270
e 1247 1271
e 1247 1272
e 1247 1273
e 1247 1274
e 1247 1275
e 1276 1277
e 1276 1278
e 1276 1279
e 1276 1280
e 1276 1281
e 1276 1282
e 1276 1283
e 1276 1284
e 1276 1285
e 1276 1286
e 1276 1287
e 1276 1288
e 1276 1289
e 1276 1290
e 1276 1291
e 1276 1292
e 1276 1293
e 1276 1294
e 1276 1295
e 1276 1296
e 1276 1297
e 1276 1298
e 1276 1299
e 1276 1300
e 1276 1301
e 1276 1302
e 1276 1303
e 1276 1304
e 1276 1305
e 1276 1306
e 1276 1307
e 1276 1308
e 1276 1309
e 1276 1310
e 1276 1311
e 1276 1312
e 1276 1313
e 1276 1314
e 1276 1315
e 1276 1316
e 1276 1317
e 1276 1318
e 1276 1319
e 1276 1320
e 1276 1321
e 1276 1322
e 1276 1323
e 1276 1324
e 1276 1325
e 1276 1326
e 1276 1327
e 1276 1328
e 1276 1329
e 1276 1330
e 1276 1331
e 1276 1332
e 1333 1334
e 1333 1335
e 1333 1336
e 1333 1337
e 1333 1338
e 1333 1339
e 1333 1340
e 1333 1341
e 1333 1342
e 1333 1343
e 1333 1344
e 1333 1345
e 1333 1346
e 1333 1347
e 1333 1348
e 1333 1349
e 1333 1350
e 1333 1351
e 1352 1353
e 1352 1354
e 1352 1355
e 1352 1356
e 1352 1357
e 1352 1358
e 1352 1359
e 1352 1360
e 1352 1361
e 1352 1362
e 1352 1363
e 1352 1364
e 1352 1365
e 1352 1366
e 1352 1367
e 1352 1368
e 1352 1369
e 1352 1370
e 1352 1371
e 1352 1372
e 1352 1373
e 1352 1374
e 1352 1375
e 1352 1376
e 1352 1377
e 1352 1378
e 1352 1379
e 1352 1380
e 1352 1381
e 1352 1382
e 1352 1383
e 1352 1384
e 1352 1385
e 1352 1386
e 1352 1387
e 1352 1388
e 1352 1389
e 1352 1390
e 1352 1391
e 1352 1392
e 1352 1393
e 1352 1394
e 1352 1395
e 1352 1396
e 1352 1397
e 1352 1398
e 1352 1399
e 1352 1400
e 1352 1401
e 1352 1402
e 1352 1403
e 1352 1404
e 1352 1405
e 1352 1406
e 1407 1408
e 1407 1409
e 1407 1410
e 1407 1411
e 1407 1412
e 1407 1413
e 1407 1414
e 1407 1415
e 1407 1416
e 1407 1417
e 1407 1418
e 1407 1419
e 1407 1420
e 1407 1421
e 1407 1422
e 1407 1423
e 1407 1424
e 1407 1425
e 1407 1426
e 1407 1427
e 1407 1428
e 1407 1429
e 1407 1430
e 1407 1431
e 1407 1432
e 1407 1433
e 1407 1434
e 1407 1435
e 1436 1437
e 1436 1438
e 1436 1439
e 1436 1440
e 1436 1441
e 1436 1442
e 1436 1443
e 1436 1444
e 1436 1445
e 1436 1446
e 1436 1447
e 1436 1448
e 1436 1449
e 1436 1450
e 1436 1451
e 1436 1452
e 1436 1453
e 1436 1454
e 1436 1455
e 1436 1456
e 1436 1457
e 1436 1458
e 1436 1459
e 1436 1460
e 1436 1461
e 1436 1462
e 1436 1463
e 1436 1464
e 1436 1465
e 1436 1466
e 1436 1467
e 1436 1468
e 1436 1469
e 1436 1470
e 1436 1471
e 1436 1472
e 1436 1473
e 1436 1474
e 1436 1475
e 1436 1476
e 1436 1477
e 1436 1478
e 1436 1479
e 1436 1480
e 1436 1481
e 1436 1482
e 1436 1483
e 1436 1484
e 1436 1485
e 1436 1486
e 1436 1487
e 1436 1488
e 1436 1489
e 1436 1490
e 1436 1491
e 1436 1492
e 1436 1493
e 1436 1494
e 1436 1495
e 1436 1496
e 1436 1497
e 1436 1498
e 1436 1499
e 1436 1500
e 1436 1501
e 1436 1502
e 1436 1503
e 1436 1504
e 1505 1506
e 1505 1507
e 1505 1508
e 1505 1509
e 1505 1510
e 1505 1511
e 1505 1512
e 1505 1513
e 1505 1514
e 1505 1515
e 1505 1516
e 1505 1517
e 1505 1518
e 1505 1519
e 1505 1520
e 1505 1521
e 1505 1522
e 1505 1523
e 1505 1524
e 1505 1525
e 1505 1526
e 1505 1527
e 1505 1528
e 1505 1529
e 1505 1530
e 1505 1531
e 1505 1532
e 1505 1533
e 1505 1534
e 1505 1535
e 1505 1536
e 1505 1537
e 1538 1539
e 1538 1540
e 1538 1541
e 1538 1542
e 1538 1543
e 1538 1544
e 1538 1545
e 1538 1546
e 1538 1547
e 1538 1548
e 1538 1549
e 1538 1550
e 1538 1551
e 1538 1552
e 1538 1553
e 1538 1554
e 1538 1555
e 1538 1556
e 1538 1557
e 1538 1558
e 1538 1559
e 1538 1560
e 1538 1561
e 1538 1562
e 1538 1563
e 1538 1564
e 1538 1565
e 1538 1566
e 1538 1567
e 1538 1568
e 1538 1569
e 1538 1570
e 1538 1571
e 1572 1573
e 1572 1574
e 1572 1575
e 1572 1576
e 1572 1577
e 1572 1578
e 1572 1579
e 1572 1580
e 1572 1581
e 1572 1582
e 1572 1583
e 1572 1584
e 1572 1585
e 1572 1586
e 1572 1587
e 1572 1588
e 1572 1589
e 1572 1590
e 1572 1591
e 1572 1592
e 1572 1593
e 1572 1594
e 1572 1595
e 1572 1596
e 1572 1597
e 1572 1598
e 1572 1599
e 1572 1600
e 1572 1601
e 1572 1602
e 1572 1603
e 1572 1604
e 1572 1605
e 1572 1606
e 1572 1607
e 1572 1608
e 1609 1610
e 1609 1611
e 1609 1612
e 1609 1613
e 1609 1614
e 1609 1615
e 1609 1616
e 1609 1617
e 1609 1618
e 1609 1619
e 1609 1620
e 1609 1621
e 1609 1622
e 1609 1623
e 1609 1624
e 1609 1625
e 1609 1626
e 1609 1627
e 1609 1628
e 1609 1629
e 1609 1630
e 1609 1631
e 1609 1632
e 1609 1633
e 1609 1634
e 1609 1635
e 1609 1636
e 1637 1638
e 1637 1639
e 1637 1640
e 1637 1641
e 1637 1642
e 1637 1643
e 1637 1644
e 1637 1645
e 1637 1646
e 1637 1647
e 1637 1648
e 1637 1649
e 1637 1650
e 1637 1651
e 1637 1652
e 1637 1653
e 1637 1654
e 1637 1655
e 1637 1656
e 1637 1657
e 1637 1658
e 1637 1659
e 1637 1660
e 1637 1661
e 1637 1662
e 1637 1663
e 1637 1664
e 1637 1665
e 1637 1666
e 1637 1667
e 1637 1668
e 1637 1669
e 1670 1671
e 1670 1672
e 1670 1673
e 1670 1674
e 1670 1675
e 1670 1676
e 1670 1677
e 1670 1678
e 1670 1679
e 1670 1680
e 1670 1681
e 1670 1682
e 1670 1683
e 1670 1684
e 1670 1685
e 1670 1686
e 1670 1687
e 1670 1688
e 1670 1689
e 1670 1690
e 1670 1691
e 1670 1692
e 1670 1693
e 1670 1694
e 1670 1695
e 1670 1696
e 1670 1697
e 1670 1698
e 1670 1699
e 1670 1700
e 1670 1701
e 1670 1702
e 1670 1703
e 1670 1704
e 1670 1705
e 1670 1706
e 1670 1707
e 1670 1708
e 1670 1709
e 1710 1711
e 1710 1712
e 1710 1713
e 1710 1714
e 1710 1715
e 1710 1716
e 1710 1717
e 1710 1718
e 1710 1719
e 1710 1720
e 1710 1721
e 1710 1722
e 1710 1723
e 1724 1725
e 1724 1726
e 1724 1727
e 1724 1728
e 1724 1729
e 1724 1730
e 1724 1731
e 1724 1732
e 1724 1733
e 1724 1734
e 1724 1735
e 1724 1736
e 1724 1737
e 1724 1738
e 1724 1739
e 1724 1740
e 1724 1741
e 1724 1742
e 1724 1743
e 1724 1744
e 1724 1745
e 1724 1746
e 1724 1747
e 1724 1748
e 1724 1749
e 1724 1750
e 1724 1751
e 1724 1752
e 1724 1753
e 1724 1754
e 1724 1755
e 1724 1756
e 1724 1757
e 1724 1758
e 1724 1759
e 1724 1760
e 1724 1761
e 1724 1762
e 1724 1763
e 1724 1764
e 1724 1765
e 1724 1766
e 1724 1767
e 1724 1768
e 1724 1769
e 1724 1770
e 1724 1771
e 1724 1772
e 1724 1773
e 1724 1774
e 1724 1775
e 1724 1776
e 1724 1777
e 1724 1778
e 1724 1779
e 1724 1780
e 1781 1782
e 1781 1783
e 1781 1784
e 1781 1785
e 1781 1786
e 1781 1787
e 1781 1788
e 1781 1789
e 1781 1790
e 1781 1791
e 1781 1792
e 1781 1793
e 1781 1794
e 1781 1795
e 1781 1796
e 1781 1797
e 1781 1798
e 1781 1799
e 1781 1800
e 1801 1802
e 1801 1803
e 1801 1804
e 1801 1805
e 1801 1806
e 1801 1807
e 1801 1808
e 1801 1809
e 1801 1810
e 1801 1811
e 1801 1812
e 1801 1813
e 1801 1814
e 1801 1815
e 1801 1816
e 1801 1817
e 1801 1818
e 1801 1819
e 1801 1820
e 1801 1821
e 1801 1822
e 1801 1823
e 1801 1824
e 1801 1825
e 1801 1826
e 1801 1827
e 1801 1828
e 1801 1829
e 1801 1830
e 1801 1831
e 1801 1832
e 1801 1833
e 1801 1834
e 1801 1835
e 1836 1837
e 1836 1838
e 1836 1839
e 1836 1840
e 1836 1841
e 1836 1842
e 1836 1843
e 1836 1844
e 1836 1845
e 1836 1846
e 1836 1847
e 1836 1848
e 1836 1849
e 1836 1850
e 1836 1851
e 1836 1852
e 1836 1853
e 1854 1855
e 1854 1856
e 1854 1857
e 1854 1858
e 1854 1859
e 1854 1860
e 1854 1861
e 1854 1862
e 1854 1863
e 1854 1864
e 1854 1865
e 1854 1866
e 1854 1867
e 1854 1868
e 1854 1869
e 1854 1870
e 1854 1871
e 1854 1872
e 1854 1873
e 1854 1874
e 1854 1875
e 1854 1876
e 1854 1877
e 1854 1878
e 1854 1879
e 1854 1880
e 1854 1881
e 1854 1882
e 1854 1883
e 1854 1884
e 1854 1885
e 1854 1886
e 1854 1887
e 1854 1888
e 1854 1889
e 1854 1890
e 1854 1891
e 1854 1892
e 1854 1893
e 1854 1894
e 1854 1895
e 1854 1896
e 1854 1897
e 1854 1898
e 1854 1899
e 1854 1900
e 1854 1901
e 1854 1902
e 1854 1903
e 1854 1904
e 1854 1905
e 1854 1906
e 1854 1907
e 1854 1908
e 1854 1909
e 1854 1910
e 1854 1911
e 1854 1912
e 1854 1913
e 1854 1914
e 1854 1915
e 1916 1917
e 1916 1918
e 1916 1919
e 1916 1920
e 1916 1921
e 1916 1922
e 1916 1923
e 1916 1924
e 1916 1925
e 1916 1926
e 1916 1927
e 1916 1928
e 1916 1929
e 1916 1930
e 1916 1931
e 1916 1932
e 1916 1933
e 1916 1934
e 1916 1935
e 1916 1936
e 1916 1937
e 1916 1938
e 1916 1939
e 1916 1940
e 1916 1941
e 1916 1942
e 1916 1943
e 1916 1944
e 1916 1945
e 1916 1946
e 1916 1947
e 1916 1948
e 1916 1949
e 1916 1950
e 1916 1951
e 1916 1952
e 1916 1953
e 1916 1954
e 1916 1955
e 1916 1956
e 1916 1957
e 1916 1958
e 1916 1959
e 1960 1961
e 1960 1962
e 1960 1963
e 1960 1964
e 1960 1965
e 1960 1966
e 1960 1967
e 1960 1968
e 1960 1969
e 1960 1970
e 1960 1971
e 1960 1972
e 1960 1973
e 1960 1974
e 1960 1975
e 1960 1976
e 1960 1977
e 1960 1978
e 1960 1979
e 1960 1980
e 1960 1981
e 1960 1982
e 1960 1983
e 1960 1984
e 1960 1985
e 1960 1986
e 1960 1987
e 1960 1988
e 1960 1989
e 1960 1990
e 1960 1991
e 1960 1992
e 1960 1993
e 1960 1994
e 1960 1995
e 1960 1996
e 1960 1997
e 1960 1998
e 1960 1999
e 1960 2000
e 1960 2001
e 1960 2002
e 1960 2003
e 1960 2004
e 1960 2005
e 1960 2006
e 1960 2007
e 1960 2008
e 1960 2009
e 1960 2010
e 1960 2011
e 1960 2012
e 1960 2013
e 1960 2014
e 1960 2015
e 2016 2017
e 2016 2018
e 2016 2019
e 2016 2020
e 2016 2021
e 2016 2022
e 2016 2023
e 2016 2024
e 2016 2025
e 2016 2026
e 2016 2027
e 2016 2028
e 2016 2029
e 2016 2030
e 2016 2031
e 2016 2032
e 2016 2033
e 2016 2034
e 2016 2035
e 2016 2036
e 2016 2037
e 2016 2038
e 2016 2039
e 2016 2040
e 2016 2041
e 2016 2042
e 2016 2043
e 2016 2044
e 2016 2045
e 2016 2046
e 2016 2047
e 2016 2048
e 2016 2049
e 2016 2050
e 2016 2051
e 2016 2052
e 2016 2053
e 2054 2055
e 2054 2056
e 2054 2057
e 2054 2058
e 2054 2059
e 2054 2060
e 2054 2061
e 2054 2062
e 2054 2063
e 2054 2064
e 2054 2065
e 2054 2066
e 2067 2068
e 2067 2069
e 2067 2070
e 2067 2071
e 2067 2072
e 2067 2073
e 2067 2074
e 2067 2075
e 2067 2076
e 2067 2077
e 2067 2078
e 2067 2079
e 2067 2080
e 2067 2081
e 2067 2082
e 2067 2083
e 2067 2084
e 2067 2085
e 2067 2086
e 2067 2087
e 2067 2088
e 2067 2089
e 2067 2090
e 2067 2091
e 2067 2092
e 2067 2093
e 2067 2094
e 2067 2095
e 2067 2096
e 2067 2097
e 2067 2098
e 2067 2099
e 2067 2100
e 2067 2101
e 2067 2102
e 2067 2103
e 2067 2104
e 2067 2105
e 2067 2106
e 2067 2107
e 2067 2108
e 2067 2109
e 2067 2110
e 2111 2112
e 2111 2113
e 2111 2114
e 2111 2115
e 2111 2116
e 2111 2117
e 2111 2118
e 2111 2119
e 2111 2120
e 2111 2121
e 2111 2122
e 2111 2123
e 2111 2124
e 2111 2125
e 2111 2126
e 2111 2127
e 2111 2128
e 2111 2129
e 2111 2130
e 2111 2131
e 2111 2132
e 2111 2133
e 2111 2134
e 2111 2135
e 2111 2136
e 2111 2137
e 2111 2138
e 2111 2139
e 2111 2140
e 2111 2141
e 2111 2142
e 2111 2143
e 2111 2144
e 2111 2145
e 2111 2146
e 2111 2147
e 2111 2148
e 2111 2149
e 2111 2150
e 2111 2151
e 2111 2152
e 2111 2153
e 2111 2154
e 2111 2155
e 2111 2156
e 2111 2157
e 2111 2158
e 2111 2159
e 2111 2160
e 2111 2161
e 2111 2162
e 2111 2163
e 2111 2164
e 2111 2165
e 2111 2166
e 2111 2167
e 2111 2168
e 2111 2169
e 2111 2170
e 2111 2171
e 2111 2172
e 2111 2173
e 2111 2174
e 2111 2175
e 2111 2176
e 2111 2177
e 2178 2179
e 2178 2180
e 2178 2181
e 2178 2182
e 2178 2183
e 2178 2184
e 2178 2185
e 2178 2186
e 2178 2187
e 2178 2188
e 2178 2189
e 2178 2190
e 2178 2191
e 2178 2192
e 2178 2193
e 2178 2194
e 2178 2195
e 2178 2196
e 2178 2197
e 2178 2198
e 2178 2199
e 2178 2200
e 2178 2201
e 2178 2202
e 2178 2203
e 2178 2204
e 2178 2205
e 2178 2206
e 2178 2207
e 2178 2208
e 2178 2209
e 2178 2210
e 2178 2211
e 2178 2212
e 2178 2213
e 2178 2214
e 2178 2215
e 2178 2216
e 2178 2217
e 2178 2218
e 2178 2219
e 2178 2220
e 2178 2221
e 2178 2222
e 2178 2223
e 2178 2224
e 2178 2225
e 2178 2226
e 2227 2228
e 2227 2229
e 2227 2230
e 2227 2231
e 2227 2232
e 2227 2233
e 2227 2234
e 2227 2235
e 2227 2236
e 2227 2237
e 2227 2238
e 2227 2239
e 2227 2240
e 2227 2241
e 2227 2242
e 2227 2243
e 2227 2244
e 2227 2245
e 2227 2246
e 2227 2247
e 2227 2248
e 2227 2249
e 2227 2250
e 2227 2251
e 2227 2252
e 2227 2253
e 2227 2254
e 2227 2255
e 2227 2256
e 2227 2257
e 2227 2258
e 2227 2259
e 2227 2260
e 2227 2261
e 2227 2262
e 2227 2263
e 2227 2264
e 2227 2265
e 2227 2266
e 2227 2267
e 2227 2268
e 2227 2269
e 2227 2270
e 2227 2271
e 2227 2272
e 2273 2274
e 2273 2275
e 2273 2276
e 2273 2277
e 2273 2278
e 2273 2279
e 2273 2280
e 2273 2281
e 2273 2282
e 2273 2283
e 2273 2284
e 2273 2285
e 2273 2286
e 2273 2287
e 2273 2288
e 2273 2289
e 2273 2290
e 2273 2291
e 2273 2292
e 2273 2293
e 2294 2295
e 2294 2296
e 2294 2297
e 2294 2298
e 2294 2299
e 2294 2300
e 2294 2301
e 2294 2302
e 2294 2303
e 2294 2304
e 2294 2305
e 2294 2306
e 2294 2307
e 2294 2308
e 2294 2309
e 2294 2310
e 2294 2311
e 2294 2312
e 2294 2313
e 2294 2314
e 2294 2315
e 2294 2316
e 2294 2317
e 2294 2318
e 2294 2319
e 2294 2320
e 2294 2321
e 2294 2322
e 2294 2323
e 2294 2324
e 2294 2325
e 2294 2326
e 2294 2327
e 2294 2328
e 2294 2329
e 2294 2330
e 2294 2331
e 2294 2332
e 2294 2333
e 2294 2334
e 2294 2335
e 2294 2336
e 2294 2337
e 2294 2338
e 2294 2339
e 2294 2340
e 2294 2341
e 2294 2342
e 2294 2343
e 2344 2345
e 2344 2346
e 2344 2347
e 2344 2348
e 2344 2349
e 2344 2350
e 2344 2351
e 2344 2352
e 2344 2353
e 2344 2354
e 2344 2355
e 2344 2356
e 2344 2357
e 2344 2358
e 2344 2359
e 2344 2360
e 2344 2361
e 2344 2362
e 2344 2363
e 2344 2364
e 2344 2365
e 2344 2366
e 2344 2367
e 2344 2368
e 2344 2369
e 2370 2371
e 2370 2372
e 2370 2373
e 2370 2374
e 2370 2375
e 2370 2376
e 2370 2377
e 2370 2378
e 2370 2379
e 2370 2380
e 2370 2381
e 2370 2382
e 2370 2383
e 2370 2384
e 2370 2385
e 2370 2386
e 2370 2387
e 2370 2388
e 2370 2389
e 2370 2390
e 2370 2391
e 2370 2392
e 2370 2393
e 2370 2394
e 2370 2395
e 2370 2396
e 2370 2397
e 2370 2398
e 2370 2399
e 2370 2400
e 2370 2401
e 2370 2402
e 2370 2403
e 2370 2404
e 2370 2405
e 2370 2406
e 2370 2407
e 2370 2408
e 2370 2409
e 2370 2410
e 2370 2411
e 2370 2412
e 2370 2413
e 2370 2414
e 2370 2415
e 2370 2416
e 2370 2417
e 2370 2418
e 2370 2419
e 2420 2421
e 2420 2422
e 2420 2423
e 2420 2424
e 2420 2425
e 2420 2426
e 2420 2427
e 2420 2428
e 2420 2429
e 2420 2430
e 2420 2431
e 2420 2432
e 2420 2433
e 2420 2434
e 2420 2435
e 2420 2436
e 2420 2437
e 2420 2438
e 2420 2439
e 2420 2440
e 2420 2441
e 2420 2442
e 2420 2443
e 2420 2444
e 2420 2445
e 2420 2446
e 2420 2447
e 2420 2448
e 2420 2449
e 2420 2450
e 2420 2451
e 2420 2452
e 2420 2453
e 2420 2454
e 2420 2455
e 2420 2456
e 2420 2457
e 2420 2458
e 2420 2459
e 2420 2460
e 2420 2461
e 2420 2462
e 2420 2463
e 2420 2464
e 2420 2465
e 2420 2466
e 2420 2467
e 2420 2468
e 2420 2469
e 2420 2470
e 2420 2471
e 2420 2472
e 2420 2473
e 2420 2474
e 2420 2475
e 2420 2476
e 2420 2477
e 2420 2478
e 2420 2479
e 2420 2480
e 2420 2481
e 2420 2482
e 2420 2483
e 2420 2484
e 2420 2485
e 2420 2486
e 2487 2488
e 2487 2489
e 2487 2490
e 2487 2491
e 2487 2492
e 2487 2493
e 2487 2494
e 2487 2495
e 2487 2496
e 2487 2497
e 2487 2498
e 2487 2499
e 2487 2500
e 2487 2501
e 2487 2502
e 2487 2503
e 2487 2504
e 2487 2505
e 2487 2506
e 2487 2507
e 2487 2508
e 2487 2509
e 2487 2510
e 2487 2511
e 2487 2512
e 2487 2513
e 2487 2514
e 2487 2515
e 2487 2516
e 2487 2517
e 2487 2518
e 2487 2519
e 2487 2520
e 2487 2521
e 2487 2522
e 2487 2523
e 2487 2524
e 2487 2525
e 2487 2526
e 2487 2527
e 2487 2528
e 2487 2529
e 2487 2530
e 2487 2531
e 2487 2532
e 2487 2533
e 2487 2534
e 2487 2535
e 2487 2536
e 2487 2537
e 2487 2538
e 2487 2539
e 2487 2540
e 2487 2541
e 2487 2542
e 2487 2543
e 2487 2544
e 2545 2546
e 2545 2547
e 2545 2548
e 2545 2549
e 2545 2550
e 2545 2551
e 2545 2552
e 2545 2553
e 2545 2554
e 2545 2555
e 2545 2556
e 2545 2557
e 2545 2558
e 2545 2559
e 2545 2560
e 2545 2561
e 2545 2562
e 2563 2564
e 2563 2565
e 2563 2566
e 2563 2567
e 2563 2568
e 2563 2569
e 2563 2570
e 2563 2571
e 2563 2572
e 2563 2573
e 2563 2574
e 2563 2575
e 2563 2576
e 2563 2577
e 2563 2578
e 2563 2579
e 2563 2580
e 2563 2581
e 2582 2583
e 2582 2584
e 2582 2585
e 2582 2586
e 2582 2587
e 2582 2588
e 2582 2589
e 2582 2590
e 2582 2591
e 2582 2592
e 2582 2593
e 2582 2594
e 2582 2595
e 2582 2596
e 2582 2597
e 2582 2598
e 2582 2599
e 2582 2600
e 2582 2601
e 2582 2602
e 2582 2603
e 2582 2604
e 2582 2605
e 2582 2606
e 2582 2607
e 2582 2608
e 2582 2609
e 2582 2610
e 2582 2611
e 2582 2612
e 2582 2613
e 2582 2614
e 2582 2615
e 2582 2616
e 2582 2617
e 2582 2618
e 2582 2619
e 2582 2620
e 2582 2621
e 2582 2622
e 2582 2623
e 2582 2624
e 2582 2625
e 2582 2626
e 2582 2627
e 2582 2628
e 2629 2630
e 2629 2631
e 2629 2632
e 2629 2633
e 2629 2634
e 2629 2635
e 2629 2636
e 2629 2637
e 2629 2638
e 2629 2639
e 2629 2640
e 2629 2641
e 2629 2642
e 2629 2643
e 2629 2644
e 2629 2645
e 2629 2646
e 2629 2647
e 2629 2648
e 2629 2649
e 2629 2650
e 2629 2651
e 2629 2652
e 2629 2653
e 2629 2654
e 2629 2655
e 2629 2656
e 2629 2657
e 2629 2658
e 2629 2659
e 2629 2660
e 2629 2661
e 2629 2662
e 2629 2663
e 2629 2664
e 2629 2665
e 2629 2666
e 2629 2667
e 2629 2668
e 2629 2669
e 2629 2670
e 2629 2671
e 2629 2672
e 2629 2673
e 2629 2674
e 2629 2675
e 2629 2676
e 2629 2677
e 2629 2678
e 2629 2679
e 2629 2680
e 2629 2681
e 2629 2682
e 2629 2683
e 2629 2684
e 2629 2685
e 2629 2686
e 2629 2687
e 2629 2688
e 2629 2689
e 2629 2690
e 2629 2691
e 2692 2693
e 2692 2694
e 2692 2695
e 2692 2696
e 2692 2697
e 2692 2698
e 2692 2699
e 2692 2700
e 2692 2701
e 2692 2702
e 2692 2703
e 2692 2704
e 2692 2705
e 2692 2706
e 2692 2707
e 2692 2708
e 2692 2709
e 2692 2710
e 2692 2711
e 2692 2712
e 2692 2713
e 2692 2714
e 2692 2715
e 2692 2716
e 2692 2717
e 2692 2718
e 2692 2719
e 2692 2720
e 2692 2721
e 2692 2722
e 2692 2723
e 2692 2724
e 2692 2725
e 2692 2726
e 2692 2727
e 2692 2728
e 2692 2729
e 2692 2730
e 2692 2731
e 2692 2732
e 2692 2733
e 2692 2734
e 2692 2735
e 2692 2736
e 2692 2737
e 2692 2738
e 2692 2739
e 2692 2740
e 2692 2741
e 2692 2742
e 2692 2743
e 2692 2744
e 2692 2745
e 2692 2746
e 2692 2747
e 2692 2748
e 2692 2749
e 2692 2750
e 2692 2751
e 2692 2752
e 2692 2753
e 2692 2754
e 2692 2755
e 2692 2756
e 2692 2757
e 2692 2758
e 2692 2759
e 2760 2761
e 2760 2762
e 2760 2763
e 2760 2764
e 2760 2765
e 2760 2766
e 2760 2767
e 2760 2768
e 2760 2769
e 2760 2770
e 2760 2771
e 2760 2772
e 2760 2773
e 2760 2774
e 2760 2775
e 2760 2776
e 2777 2778
e 2777 2779
e 2777 2780
e 2777 2781
e 2777 2782
e 2777 2783
e 2777 2784
e 2777 2785
e 2777 2786
e 2777 2787
e 2777 2788
e 2777 2789
e 2777 2790
e 2777 2791
e 2777 2792
e 2777 2793
e 2777 2794
e 2777 2795
e 2796 2797
e 2796 2798
e 2796 2799
e 2796 2800
e 2796 2801
e 2796 2802
e 2796 2803
e 2796 2804
e 2796 2805
e 2796 2806
e 2807 2808
e 2807 2809
e 2807 2810
e 2807 2811
e 2807 2812
e 2807 2813
e 2807 2814
e 2807 2815
e 2807 2816
e 2807 2817
e 2807 2818
e 2807 2819
e 2807 2820
e 2807 2821
e 2807 2822
e 2807 2823
e 2807 2824
e 2807 2825
e 2807 2826
e 2807 2827
e 2807 2828
e 2807 2829
e 2807 2830
e 2807 2831
e 2807 2832
e 2807 2833
e 2807 2834
e 2807 2835
e 2807 2836
e 2807 2837
e 2807 2838
e 2807 2839
e 2807 2840
e 2807 2841
e 2807 2842
e 2807 2843
e 2807 2844
e 2807 2845
e 2807 2846
e 2807 2847
e 2807 2848
e 2807 2849
e 2807 2850
e 2851 2852
e 2851 2853
e 2851 2854
e 2851 2855
e 2851 2856
e 2851 2857
e 2851 2858
e 2851 2859
e 2851 2860
e 2851 2861
e 2851 2862
e 2851 2863
e 2851 2864
e 2851 2865
e 2851 2866
e 2851 2867
e 2851 2868
e 2851 2869
e 2851 2870
e 2851 2871
e 2851 2872
e 2851 2873
e 2851 2874
e 2851 2875
e 2851 2876
e 2851 2877
e 2851 2878
e 2851 2879
e 2851 2880
e 2851 2881
e 2851 2882
e 2851 2883
e 2851 2884
e 2851 2885
e 2851 2886
e 2851 2887
e 2851 2888
e 2851 2889
e 2851 2890
e 2851 2891
e 2851 2892
e 2851 2893
e 2851 2894
e 2851 2895
e 2851 2896
e 2851 2897
e 2851 2898
e 2851 2899
e 2851 2900
e 2851 2901
e 2851 2902
e 2851 2903
e 2904 2905
e 2904 2906
e 2904 2907
e 2904 2908
e 2904 2909
e 2904 2910
e 2904 2911
e 2904 2912
e 2904 2913
e 2904 2914
e 2904 2915
e 2904 2916
e 2904 2917
e 2904 2918
e 2904 2919
e 2904 2920
e 2904 2921
e 2904 2922
e 2904 2923
e 2904 2924
e 2904 2925
e 2904 2926
e 2904 2927
e 2904 2928
e 2904 2929
e 2904 2930
e 2904 2931
e 2904 2932
e 2904 2933
e 2904 2934
e 2904 2935
e 2904 2936
e 2904 2937
e 2904 2938
e 2904 2939
e 2904 2940
e 2904 2941
e 2904 2942
e 2904 2943
e 2904 2944
e 2904 2945
e 2904 2946
e 2904 2947
e 2904 2948
e 2904 2949
e 2904 2950
e 2904 2951
e 2904 2952
e 2904 2953
e 2904 2954
e 2955 2956
e 2955 2957
e 2955 2958
e 2955 2959
e 2955 2960
e 2955 2961
e 2955 2962
e 2955 2963
e 2955 2964
e 2955 2965
e 2955 2966
e 2967 2968
e 2967 2969
e 2967 2970
e 2967 2971
e 2967 2972
e 2967 2973
e 2967 2974
e 2967 2975
e 2967 2976
e 2967 2977
e 2967 2978
e 2967 2979
e 2967 2980
e 2981 2982
e 2981 2983
e 2981 2984
e 2981 2985
e 2981 2986
e 2981 2987
e 2981 2988
e 2981 2989
e 2981 2990
e 2981 2991
e 2981 2992
e 2981 2993
e 2981 2994
e 2981 2995
e 2981 2996
e 2981 2997
e 2981 2998
e 2981 2999
e 2981 3000
e 2981 3001
e 2981 3002
e 2981 3003
e 2981 3004
e 2981 3005
e 2981 3006
e 2981 3007
e 2981 3008
e 2981 3009
e 2981 3010
e 2981 3011
e 2981 3012
e 2981 3013
e 2981 3014
e 2981 3015
e 2981 3016
e 2981 3017
e 2981 3018
e 3019 3020
e 3019 3021
e 3019 3022
e 3019 3023
e 3019 3024
e 3019 3025
e 3019 3026
e 3019 3027
e 3019 3028
e 3019 3029
e 3019 3030
e 3019 3031
e 3019 3032
e 3019 3033
e 3019 3034
e 3019 3035
e 3019 3036
e 3019 3037
e 3019 3038
e 3019 3039
e 3019 3040
e 3019 3041
e 3019 3042
e 3019 3043
e 3019 3044
e 3019 3045
e 3019 3046
e 3019 3047
e 3019 3048
e 3019 3049
e 3019 3050
e 3019 3051
e 3019 3052
e 3019 3053
e 3019 3054
e 3019 3055
e 3019 3056
e 3019 3057
e 3019 3058
e 3019 3059
e 3019 3060
e 3019 3061
e 3019 3062
e 3019 3063
e 3019 3064
e 3019 3065
e 3019 3066
e 3019 3067
e 3019 3068
e 3019 3069
e 3019 3070
e 3019 3071
e 3019 3072
e 3019 3073
e 3019 3074
e 3019 3075
e 3019 3076
e 3019 3077
e 3019 3078
e 3019 3079
e 3019 3080
e 3019 3081
e 3019 3082
e 3019 3083
e 3019 3084
e 3019 3085
e 3019 3086
e 3087 3088
e 3087 3089
e 3087 3090
e 3087 3091
e 3087 3092
e 3087 3093
e 3087 3094
e 3087 3095
e 3087 3096
e 3087 3097
e 3087 3098
e 3087 3099
e 3087 3100
e 3087 3101
e 3087 3102
e 3087 3103
e 3087 3104
e 3087 3105
e 3087 3106
e 3087 3107
e 3087 3108
e 3087 3109
e 3087 3110
e 3087 3111
e 3087 3112
e 3087 3113
e 3087 3114
e 3087 3115
e 3087 3116
e 3087 3117
e 3087 3118
e 3087 3119
e 3087 3120
e 3087 3121
e 3087 3122
e 3087 3123
e 3087 3124
e 3087 3125
e 3087 3126
e 3087 3127
e 3087 3128
e 3087 3129
e 3087 3130
e 3087 3131
e 3087 3132
e 3087 3133
e 3087 3134
e 3087 3135
e 3087 3136
e 3087 3137
e 3087 3138
e 3087 3139
e 3087 3140
e 3087 3141
e 3087 3142
e 3087 3143
e 3087 3144
e 3087 3145
e 3087 3146
e 3087 3147
e 3087 3148
e 3087 3149
e 3087 3150
e 3087 3151
e 3087 3152
e 3087 3153
e 3087 3154
e 3087 3155
e 3087 3156
e 3157 3158
e 3157 3159
e 3157 3160
e 3157 3161
e 3157 3162
e 3157 3163
e 3157 3164
e 3157 3165
e 3157 3166
e 3157 3167
e 3157 3168
e 3157 3169
e 3157 3170
e 3157 3171
e 3157 3172
e 3157 3173
e 3157 3174
e 3157 3175
e 3157 3176
e 3157 3177
e 3157 3178
e 3157 3179
e 3157 3180
e 3157 3181
e 3157 3182
e 3157 3183
e 3157 3184
e 3157 3185
e 3157 3186
e 3157 3187
e 3157 3188
e 3157 3189
e 3157 3190
e 3157 3191
e 3157 3192
e 3157 3193
e 3157 3194
e 3157 3195
e 3157 3196
e 3157 3197
e 3198 3199
e 3198 3200
e 3198 3201
e 3198 3202
e 3198 3203
e 3198 3204
e 3198 3205
e 3198 3206
e 3198 3207
e 3198 3208
e 3198 3209
e 3198 3210
e 3198 3211
e 3198 3212
e 3198 3213
e 3198 3214
e 3198 3215
e 3198 3216
e 3198 3217
e 3198 3218
e 3198 3219
e 3198 3220
e 3198 3221
e 3198 3222
e 3198 3223
e 3198 3224
e 3198 3225
e 3198 3226
e 3198 3227
e 3198 3228
e 3198 3229
e 3198 3230
e 3198 3231
e 3198 3232
e 3198 3233
e 3198 3234
e 3198 3235
e 3198 3236
e 3198 3237
e 3198 3238
e 3198 3239
e 3198 3240
e 3198 3241
e 3198 3242
e 3198 3243
e 3198 3244
e 3198 3245
e 3198 3246
e 3247 3248
e 3247 3249
e 3247 3250
e 3247 3251
e 3247 3252
e 3247 3253
e 3247 3254
e 3247 3255
e 3247 3256
e 3247 3257
e 3247 3258
e 3247 3259
e 3247 3260
e 3247 3261
e 3247 3262
e 3247 3263
e 3247 3264
e 3247 3265
e 3247 3266
e 3247 3267
e 3247 3268
e 3247 3269
e 3247 3270
e 3247 3271
e 3247 3272
e 3247 3273
e 3247 3274
e 3247 3275
e 3247 3276
e 3247 3277
e 3247 3278
e 3247 3279
e 3247 3280
e 3247 3281
e 3247 3282
e 3247 3283
e 3247 3284
e 3247 3285
e 3247 3286
e 3247 3287
e 3247 3288
e 3247 3289
e 3247 3290
e 3247 3291
e 3247 3292
e 3247 3293
e 3247 3294
e 3247 3295
e 3247 3296
e 3247 3297
e 3247 3298
e 3247 3299
e 3247 3300
e 3247 3301
e 3247 3302
e 3247 3303
e 3247 3304
e 3247 3305
e 3247 3306
e 3247 3307
e 3247 3308
e 3247 3309
e 3247 3310
e 3247 3311
e 3247 3312
e 3247 3313
e 3247 3314
e 3247 3315
e 3247 3316
e 3247 3317
e 3318 3319
e 3318 3320
e 3318 3321
e 3318 3322
e 3318 3323
e 3318 3324
e 3318 3325
e 3318 3326
e 3318 3327
e 3318 3328
e 3318 3329
e 3318 3330
e 3318 3331
e 3318 3332
e 3318 3333
e 3318 3334
e 3318 3335
e 3318 3336
e 3318 3337
e 3318 3338
e 3318 3339
e 3318 3340
e 3318 3341
e 3318 3342
e 3318 3343
e 3318 3344
e 3318 3345
e 3318 3346
e 3318 3347
e 3318 3348
e 3318 3349
e 3318 3350
e 3318 3351
e 3318 3352
e 3353 3354
e 3353 3355
e 3353 3356
e 3353 3357
e 3353 3358
e 3353 3359
e 3353 3360
e 3353 3361
e 3353 3362
e 3353 3363
e 3353 3364
e 3353 3365
e 3353 3366
e 3353 3367
e 3353 3368
e 3353 3369
e 3353 3370
e 3353 3371
e 3353 3372
e 3353 3373
e 3353 3374
e 3353 3375
e 3353 3376
e 3353 3377
e 3353 3378
e 3353 3379
e 3353 3380
e 3353 3381
e 3353 3382
e 3353 3383
e 3353 3384
e 3353 3385
e 3353 3386
e 3353 3387
e 3353 3388
e 3353 3389
e 3390 3391
e 3390 3392
e 3390 3393
e 3390 3394
e 3390 3395
e 3390 3396
e 3390 3397
e 3390 3398
e 3390 3399
e 3390 3400
e 3390 3401
e 3390 3402
e 3390 3403
e 3390 3404
e 3390 3405
e 3390 3406
e 3390 3407
e 3390 3408
e 3390 3409
e 3390 3410
e 3390 3411
e 3390 3412
e 3390 3413
e 3390 3414
e 3390 3415
e 3390 3416
e 3390 3417
e 3390 3418
e 3390 3419
e 3390 3420
e 3390 3421
e 3390 3422
e 3390 3423
e 3390 3424
e 3390 3425
e 3390 3426
e 3390 3427
e 3390 3428
e 3390 3429
e 3390 3430
e 3390 3431
e 3390 3432
e 3390 3433
e 3390 3434
e 3390 3435
e 3390 3436
e 3390 3437
e 3390 3438
e 3390 3439
e 3440 3441
e 3440 3442
e 3440 3443
e 3440 3444
e 3440 3445
e 3440 3446
e 3440 3447
e 3440 3448
e 3440 3449
e 3440 3450
e 3440 3451
e 3440 3452
e 3440 3453
e 3440 3454
e 3440 3455
e 3440 3456
e 3440 3457
e 3440 3458
e 3440 3459
e 3440 3460
e 3440 3461
e 3440 3462
